benchmarks/crosswords/mzn/crossword3_25.res
REGULAR
REGULAR
REGULAR
REGULAR
REGULAR
REGULAR
REGULAR
REGULAR
REGULAR
REGULAR
REGULAR
REGULAR
REGULAR
REGULAR
REGULAR
REGULAR
REGULAR
REGULAR
REGULAR
REGULAR
REGULAR
REGULAR
REGULAR
REGULAR
REGULAR
REGULAR
REGULAR
REGULAR
REGULAR
REGULAR
REGULAR
REGULAR
REGULAR
REGULAR
REGULAR
REGULAR
REGULAR
REGULAR
REGULAR
REGULAR
REGULAR
REGULAR
REGULAR
REGULAR
REGULAR
REGULAR
REGULAR
REGULAR
REGULAR
REGULAR
REGULAR
REGULAR
REGULAR
REGULAR
REGULAR
REGULAR
REGULAR
REGULAR
REGULAR
REGULAR
REGULAR
REGULAR
REGULAR
REGULAR
REGULAR
REGULAR
REGULAR
REGULAR
REGULAR
REGULAR
REGULAR
REGULAR
REGULAR
REGULAR
REGULAR
REGULAR
REGULAR
REGULAR
REGULAR
REGULAR
REGULAR
REGULAR
REGULAR
REGULAR
REGULAR
REGULAR
REGULAR
REGULAR
REGULAR
REGULAR
REGULAR
REGULAR
REGULAR
REGULAR
REGULAR
REGULAR
REGULAR
REGULAR
REGULAR
REGULAR
REGULAR
REGULAR
REGULAR
REGULAR
REGULAR
REGULAR
REGULAR
REGULAR
REGULAR
REGULAR
REGULAR
REGULAR
REGULAR
REGULAR
REGULAR
REGULAR
REGULAR
REGULAR
REGULAR
REGULAR
REGULAR
REGULAR
REGULAR
REGULAR
REGULAR
REGULAR
REGULAR
REGULAR
L = array1d(0..287, [1, 4, 5, 2, 1, 19, 1, 12, 1, 19, 5, 18, 1, 4, 1, 15, 7, 1, 4, 1, 4, 1, 14, 1, 12, 19, 19, 1, 20, 5, 22, 1, 5, 12, 9, 1, 14, 3, 9, 18, 5, 1, 18, 26, 5, 2, 1, 12, 2, 8, 19, 1, 14, 14, 1, 13, 19, 12, 5, 20, 18, 5, 2, 14, 1, 9, 18, 1, 3, 15, 7, 1, 9, 19, 4, 9, 1, 18, 5, 7, 1, 7, 12, 5, 2, 1, 14, 8, 3, 19, 4, 1, 11, 11, 1, 12, 1, 3, 20, 5, 21, 18, 3, 19, 5, 8, 15, 8, 3, 5, 13, 1, 8, 12, 15, 7, 12, 1, 1, 12, 1, 19, 20, 5, 22, 12, 5, 22, 18, 1, 2, 1, 2, 12, 5, 2, 1, 2, 18, 9, 5, 8, 12, 1, 14, 1, 2, 4, 12, 9, 13, 19, 14, 5, 22, 5, 12, 1, 13, 1, 10, 14, 5, 5, 18, 21, 1, 13, 2, 1, 4, 20, 1, 18, 1, 3, 4, 1, 6, 5, 2, 12, 5, 2, 9, 14, 1, 21, 18, 21, 10, 7, 1, 12, 5, 4, 21, 12, 5, 5, 19, 5, 5, 7, 14, 15, 13, 2, 1, 8, 1, 25, 1, 12, 5, 4, 16, 13, 1, 12, 18, 1, 2, 5, 1, 18, 25, 18, 5, 12, 12, 5, 3, 14, 1, 8, 3, 1, 4, 1, 5, 14, 1, 26, 26, 1, 9, 4, 1, 9, 16, 1, 13, 1, 18, 16, 12, 1, 5, 14, 1, 14, 1, 4, 5, 18, 1, 16, 1, 12, 21, 5, 1, 2, 12, 5, 8, 1, 20, 21, 2, 1, 3, 19, 3, 3, 1, 25]);
----------

%%  runtime:       11.372 (11372.164 ms)
%%  solvetime:     0.158 (158.138 ms)
%%  solutions:     1
%%  variables:     24369
%%  propagators:   32337
%%  propagations:  272569
%%  nodes:         157
%%  failures:      14
%%  restarts:      0
%%  peak depth:    135

GECODE_TUPLESET_MEM
GECODE_TUPLESET_MEM
GECODE_TUPLESET_MEM
GECODE_TUPLESET_MEM
GECODE_TUPLESET_MEM
GECODE_TUPLESET_MEM
GECODE_TUPLESET_MEM
GECODE_TUPLESET_MEM
GECODE_TUPLESET_MEM
GECODE_TUPLESET_MEM
GECODE_TUPLESET_MEM
GECODE_TUPLESET_MEM
GECODE_TUPLESET_MEM
GECODE_TUPLESET_MEM
GECODE_TUPLESET_MEM
GECODE_TUPLESET_MEM
GECODE_TUPLESET_MEM
GECODE_TUPLESET_MEM
GECODE_TUPLESET_MEM
GECODE_TUPLESET_MEM
GECODE_TUPLESET_MEM
GECODE_TUPLESET_MEM
GECODE_TUPLESET_MEM
GECODE_TUPLESET_MEM
GECODE_TUPLESET_MEM
GECODE_TUPLESET_MEM
GECODE_TUPLESET_MEM
GECODE_TUPLESET_MEM
GECODE_TUPLESET_MEM
GECODE_TUPLESET_MEM
GECODE_TUPLESET_MEM
GECODE_TUPLESET_MEM
GECODE_TUPLESET_MEM
GECODE_TUPLESET_MEM
GECODE_TUPLESET_MEM
GECODE_TUPLESET_MEM
GECODE_TUPLESET_MEM
GECODE_TUPLESET_MEM
GECODE_TUPLESET_MEM
GECODE_TUPLESET_MEM
GECODE_TUPLESET_MEM
GECODE_TUPLESET_MEM
GECODE_TUPLESET_MEM
GECODE_TUPLESET_MEM
GECODE_TUPLESET_MEM
GECODE_TUPLESET_MEM
GECODE_TUPLESET_MEM
GECODE_TUPLESET_MEM
GECODE_TUPLESET_MEM
GECODE_TUPLESET_MEM
GECODE_TUPLESET_MEM
GECODE_TUPLESET_MEM
GECODE_TUPLESET_MEM
GECODE_TUPLESET_MEM
GECODE_TUPLESET_MEM
GECODE_TUPLESET_MEM
GECODE_TUPLESET_MEM
GECODE_TUPLESET_MEM
GECODE_TUPLESET_MEM
GECODE_TUPLESET_MEM
GECODE_TUPLESET_MEM
GECODE_TUPLESET_MEM
GECODE_TUPLESET_MEM
GECODE_TUPLESET_MEM
GECODE_TUPLESET_MEM
GECODE_TUPLESET_MEM
GECODE_TUPLESET_MEM
GECODE_TUPLESET_MEM
GECODE_TUPLESET_MEM
GECODE_TUPLESET_MEM
GECODE_TUPLESET_MEM
GECODE_TUPLESET_MEM
GECODE_TUPLESET_MEM
GECODE_TUPLESET_MEM
GECODE_TUPLESET_MEM
GECODE_TUPLESET_MEM
GECODE_TUPLESET_MEM
GECODE_TUPLESET_MEM
GECODE_TUPLESET_MEM
GECODE_TUPLESET_MEM
GECODE_TUPLESET_MEM
GECODE_TUPLESET_MEM
GECODE_TUPLESET_MEM
GECODE_TUPLESET_MEM
GECODE_TUPLESET_MEM
GECODE_TUPLESET_MEM
GECODE_TUPLESET_MEM
GECODE_TUPLESET_MEM
GECODE_TUPLESET_MEM
GECODE_TUPLESET_MEM
GECODE_TUPLESET_MEM
GECODE_TUPLESET_MEM
GECODE_TUPLESET_MEM
GECODE_TUPLESET_MEM
GECODE_TUPLESET_MEM
GECODE_TUPLESET_MEM
GECODE_TUPLESET_MEM
GECODE_TUPLESET_MEM
GECODE_TUPLESET_MEM
GECODE_TUPLESET_MEM
GECODE_TUPLESET_MEM
GECODE_TUPLESET_MEM
GECODE_TUPLESET_MEM
GECODE_TUPLESET_MEM
GECODE_TUPLESET_MEM
GECODE_TUPLESET_MEM
GECODE_TUPLESET_MEM
GECODE_TUPLESET_MEM
GECODE_TUPLESET_MEM
GECODE_TUPLESET_MEM
GECODE_TUPLESET_MEM
GECODE_TUPLESET_MEM
GECODE_TUPLESET_MEM
GECODE_TUPLESET_MEM
GECODE_TUPLESET_MEM
GECODE_TUPLESET_MEM
GECODE_TUPLESET_MEM
GECODE_TUPLESET_MEM
GECODE_TUPLESET_MEM
GECODE_TUPLESET_MEM
GECODE_TUPLESET_MEM
GECODE_TUPLESET_MEM
GECODE_TUPLESET_MEM
GECODE_TUPLESET_MEM
GECODE_TUPLESET_MEM
GECODE_TUPLESET_MEM
GECODE_TUPLESET_MEM
GECODE_TUPLESET_MEM
L = array1d(0..287, [1, 8, 5, 23, 14, 3, 1, 16, 5, 2, 12, 22, 4, 3, 1, 18, 1, 15, 12, 5, 15, 1, 8, 1, 19, 12, 1, 9, 18, 1, 8, 5, 13, 19, 12, 1, 20, 2, 1, 1, 19, 5, 21, 12, 1, 14, 1, 22, 25, 1, 12, 9, 1, 2, 18, 1, 3, 1, 4, 1, 2, 18, 1, 3, 1, 12, 25, 1, 11, 2, 1, 4, 5, 2, 1, 19, 5, 4, 19, 5, 5, 4, 5, 12, 5, 7, 1, 14, 3, 5, 1, 18, 21, 2, 1, 8, 1, 4, 14, 25, 1, 19, 1, 3, 1, 2, 12, 9, 13, 15, 8, 1, 20, 6, 1, 9, 14, 20, 15, 12, 1, 4, 1, 13, 1, 7, 5, 4, 16, 1, 9, 14, 5, 6, 12, 21, 11, 25, 5, 18, 1, 19, 7, 21, 12, 1, 7, 4, 9, 15, 18, 6, 15, 18, 4, 19, 6, 9, 5, 12, 4, 2, 1, 7, 7, 1, 7, 5, 15, 1, 20, 19, 5, 1, 18, 19, 2, 15, 2, 1, 7, 1, 18, 3, 8, 9, 11, 5, 5, 14, 19, 11, 1, 25, 7, 18, 5, 7, 7, 8, 21, 13, 2, 15, 12, 4, 20, 2, 1, 14, 4, 1, 9, 4, 5, 19, 5, 12, 2, 1, 16, 1, 13, 1, 16, 20, 1, 5, 19, 3, 21, 12, 1, 16, 9, 21, 19, 8, 1, 8, 2, 18, 1, 14, 19, 1, 14, 1, 1, 18, 3, 19, 13, 5, 1, 14, 25, 1, 3, 3, 9, 14, 20, 9, 12, 5, 12, 1, 9, 18, 13, 1, 5, 20, 20, 1, 5, 20, 15, 14, 1, 4, 1, 13, 3, 25, 19, 20]);
----------

%%  runtime:       1.277 (1277.005 ms)
%%  solvetime:     0.232 (232.459 ms)
%%  solutions:     1
%%  variables:     24369
%%  propagators:   32337
%%  propagations:  343644
%%  nodes:         169
%%  failures:      19
%%  restarts:      0
%%  peak depth:    145

GECODE_TUPLESET_SPEED
GECODE_TUPLESET_SPEED
GECODE_TUPLESET_SPEED
GECODE_TUPLESET_SPEED
GECODE_TUPLESET_SPEED
GECODE_TUPLESET_SPEED
GECODE_TUPLESET_SPEED
GECODE_TUPLESET_SPEED
GECODE_TUPLESET_SPEED
GECODE_TUPLESET_SPEED
GECODE_TUPLESET_SPEED
GECODE_TUPLESET_SPEED
GECODE_TUPLESET_SPEED
GECODE_TUPLESET_SPEED
GECODE_TUPLESET_SPEED
GECODE_TUPLESET_SPEED
GECODE_TUPLESET_SPEED
GECODE_TUPLESET_SPEED
GECODE_TUPLESET_SPEED
GECODE_TUPLESET_SPEED
GECODE_TUPLESET_SPEED
GECODE_TUPLESET_SPEED
GECODE_TUPLESET_SPEED
GECODE_TUPLESET_SPEED
GECODE_TUPLESET_SPEED
GECODE_TUPLESET_SPEED
GECODE_TUPLESET_SPEED
GECODE_TUPLESET_SPEED
GECODE_TUPLESET_SPEED
GECODE_TUPLESET_SPEED
GECODE_TUPLESET_SPEED
GECODE_TUPLESET_SPEED
GECODE_TUPLESET_SPEED
GECODE_TUPLESET_SPEED
GECODE_TUPLESET_SPEED
GECODE_TUPLESET_SPEED
GECODE_TUPLESET_SPEED
GECODE_TUPLESET_SPEED
GECODE_TUPLESET_SPEED
GECODE_TUPLESET_SPEED
GECODE_TUPLESET_SPEED
GECODE_TUPLESET_SPEED
GECODE_TUPLESET_SPEED
GECODE_TUPLESET_SPEED
GECODE_TUPLESET_SPEED
GECODE_TUPLESET_SPEED
GECODE_TUPLESET_SPEED
GECODE_TUPLESET_SPEED
GECODE_TUPLESET_SPEED
GECODE_TUPLESET_SPEED
GECODE_TUPLESET_SPEED
GECODE_TUPLESET_SPEED
GECODE_TUPLESET_SPEED
GECODE_TUPLESET_SPEED
GECODE_TUPLESET_SPEED
GECODE_TUPLESET_SPEED
GECODE_TUPLESET_SPEED
GECODE_TUPLESET_SPEED
GECODE_TUPLESET_SPEED
GECODE_TUPLESET_SPEED
GECODE_TUPLESET_SPEED
GECODE_TUPLESET_SPEED
GECODE_TUPLESET_SPEED
GECODE_TUPLESET_SPEED
GECODE_TUPLESET_SPEED
GECODE_TUPLESET_SPEED
GECODE_TUPLESET_SPEED
GECODE_TUPLESET_SPEED
GECODE_TUPLESET_SPEED
GECODE_TUPLESET_SPEED
GECODE_TUPLESET_SPEED
GECODE_TUPLESET_SPEED
GECODE_TUPLESET_SPEED
GECODE_TUPLESET_SPEED
GECODE_TUPLESET_SPEED
GECODE_TUPLESET_SPEED
GECODE_TUPLESET_SPEED
GECODE_TUPLESET_SPEED
GECODE_TUPLESET_SPEED
GECODE_TUPLESET_SPEED
GECODE_TUPLESET_SPEED
GECODE_TUPLESET_SPEED
GECODE_TUPLESET_SPEED
GECODE_TUPLESET_SPEED
GECODE_TUPLESET_SPEED
GECODE_TUPLESET_SPEED
GECODE_TUPLESET_SPEED
GECODE_TUPLESET_SPEED
GECODE_TUPLESET_SPEED
GECODE_TUPLESET_SPEED
GECODE_TUPLESET_SPEED
GECODE_TUPLESET_SPEED
GECODE_TUPLESET_SPEED
GECODE_TUPLESET_SPEED
GECODE_TUPLESET_SPEED
GECODE_TUPLESET_SPEED
GECODE_TUPLESET_SPEED
GECODE_TUPLESET_SPEED
GECODE_TUPLESET_SPEED
GECODE_TUPLESET_SPEED
GECODE_TUPLESET_SPEED
GECODE_TUPLESET_SPEED
GECODE_TUPLESET_SPEED
GECODE_TUPLESET_SPEED
GECODE_TUPLESET_SPEED
GECODE_TUPLESET_SPEED
GECODE_TUPLESET_SPEED
GECODE_TUPLESET_SPEED
GECODE_TUPLESET_SPEED
GECODE_TUPLESET_SPEED
GECODE_TUPLESET_SPEED
GECODE_TUPLESET_SPEED
GECODE_TUPLESET_SPEED
GECODE_TUPLESET_SPEED
GECODE_TUPLESET_SPEED
GECODE_TUPLESET_SPEED
GECODE_TUPLESET_SPEED
GECODE_TUPLESET_SPEED
GECODE_TUPLESET_SPEED
GECODE_TUPLESET_SPEED
GECODE_TUPLESET_SPEED
GECODE_TUPLESET_SPEED
GECODE_TUPLESET_SPEED
GECODE_TUPLESET_SPEED
GECODE_TUPLESET_SPEED
GECODE_TUPLESET_SPEED
GECODE_TUPLESET_SPEED
GECODE_TUPLESET_SPEED
L = array1d(0..287, [1, 8, 5, 23, 14, 3, 1, 16, 5, 2, 12, 22, 4, 3, 1, 18, 1, 15, 12, 5, 15, 1, 8, 1, 19, 12, 1, 9, 18, 1, 8, 5, 13, 19, 12, 1, 20, 2, 1, 1, 19, 5, 21, 12, 1, 14, 1, 22, 25, 1, 12, 9, 1, 2, 18, 1, 3, 1, 4, 1, 2, 18, 1, 3, 1, 12, 25, 1, 11, 2, 1, 4, 5, 2, 1, 19, 5, 4, 19, 5, 5, 4, 5, 12, 5, 7, 1, 14, 3, 5, 1, 18, 21, 2, 1, 8, 1, 4, 14, 25, 1, 19, 1, 3, 1, 2, 12, 9, 13, 15, 8, 1, 20, 6, 1, 9, 14, 20, 15, 12, 1, 4, 1, 13, 1, 7, 5, 4, 16, 1, 9, 14, 5, 6, 12, 21, 11, 25, 5, 18, 1, 19, 7, 21, 12, 1, 7, 4, 9, 15, 18, 6, 15, 18, 4, 19, 6, 9, 5, 12, 4, 2, 1, 7, 7, 1, 7, 5, 15, 1, 20, 19, 5, 1, 18, 19, 2, 15, 2, 1, 7, 1, 18, 3, 8, 9, 11, 5, 5, 14, 19, 11, 1, 25, 7, 18, 5, 7, 7, 8, 21, 13, 2, 15, 12, 4, 20, 2, 1, 14, 4, 1, 9, 4, 5, 19, 5, 12, 2, 1, 16, 1, 13, 1, 16, 20, 1, 5, 19, 3, 21, 12, 1, 16, 9, 21, 19, 8, 1, 8, 2, 18, 1, 14, 19, 1, 14, 1, 1, 18, 3, 19, 13, 5, 1, 14, 25, 1, 3, 3, 9, 14, 20, 9, 12, 5, 12, 1, 9, 18, 13, 1, 5, 20, 20, 1, 5, 20, 15, 14, 1, 4, 1, 13, 3, 25, 19, 20]);
----------

%%  runtime:       1.235 (1235.007 ms)
%%  solvetime:     0.206 (206.076 ms)
%%  solutions:     1
%%  variables:     24369
%%  propagators:   32337
%%  propagations:  339488
%%  nodes:         169
%%  failures:      19
%%  restarts:      0
%%  peak depth:    145

COMPACT_TABLE
COMPACT_TABLE
COMPACT_TABLE
COMPACT_TABLE
COMPACT_TABLE
COMPACT_TABLE
COMPACT_TABLE
COMPACT_TABLE
COMPACT_TABLE
COMPACT_TABLE
COMPACT_TABLE
COMPACT_TABLE
COMPACT_TABLE
COMPACT_TABLE
COMPACT_TABLE
COMPACT_TABLE
COMPACT_TABLE
COMPACT_TABLE
COMPACT_TABLE
COMPACT_TABLE
COMPACT_TABLE
COMPACT_TABLE
COMPACT_TABLE
COMPACT_TABLE
COMPACT_TABLE
COMPACT_TABLE
COMPACT_TABLE
COMPACT_TABLE
COMPACT_TABLE
COMPACT_TABLE
COMPACT_TABLE
COMPACT_TABLE
COMPACT_TABLE
COMPACT_TABLE
COMPACT_TABLE
COMPACT_TABLE
COMPACT_TABLE
COMPACT_TABLE
COMPACT_TABLE
COMPACT_TABLE
COMPACT_TABLE
COMPACT_TABLE
COMPACT_TABLE
COMPACT_TABLE
COMPACT_TABLE
COMPACT_TABLE
COMPACT_TABLE
COMPACT_TABLE
COMPACT_TABLE
COMPACT_TABLE
COMPACT_TABLE
COMPACT_TABLE
COMPACT_TABLE
COMPACT_TABLE
COMPACT_TABLE
COMPACT_TABLE
COMPACT_TABLE
COMPACT_TABLE
COMPACT_TABLE
COMPACT_TABLE
COMPACT_TABLE
COMPACT_TABLE
COMPACT_TABLE
COMPACT_TABLE
COMPACT_TABLE
COMPACT_TABLE
COMPACT_TABLE
COMPACT_TABLE
COMPACT_TABLE
COMPACT_TABLE
COMPACT_TABLE
COMPACT_TABLE
COMPACT_TABLE
COMPACT_TABLE
COMPACT_TABLE
COMPACT_TABLE
COMPACT_TABLE
COMPACT_TABLE
COMPACT_TABLE
COMPACT_TABLE
COMPACT_TABLE
COMPACT_TABLE
COMPACT_TABLE
COMPACT_TABLE
COMPACT_TABLE
COMPACT_TABLE
COMPACT_TABLE
COMPACT_TABLE
COMPACT_TABLE
COMPACT_TABLE
COMPACT_TABLE
COMPACT_TABLE
COMPACT_TABLE
COMPACT_TABLE
COMPACT_TABLE
COMPACT_TABLE
COMPACT_TABLE
COMPACT_TABLE
COMPACT_TABLE
COMPACT_TABLE
COMPACT_TABLE
COMPACT_TABLE
COMPACT_TABLE
COMPACT_TABLE
COMPACT_TABLE
COMPACT_TABLE
COMPACT_TABLE
COMPACT_TABLE
COMPACT_TABLE
COMPACT_TABLE
COMPACT_TABLE
COMPACT_TABLE
COMPACT_TABLE
COMPACT_TABLE
COMPACT_TABLE
COMPACT_TABLE
COMPACT_TABLE
COMPACT_TABLE
COMPACT_TABLE
COMPACT_TABLE
COMPACT_TABLE
COMPACT_TABLE
COMPACT_TABLE
COMPACT_TABLE
COMPACT_TABLE
COMPACT_TABLE
COMPACT_TABLE
COMPACT_TABLE
L = array1d(0..287, [1, 8, 5, 23, 14, 3, 1, 16, 5, 2, 12, 22, 4, 3, 1, 18, 1, 15, 12, 5, 15, 1, 8, 1, 19, 12, 1, 9, 18, 1, 8, 5, 13, 19, 12, 1, 20, 2, 1, 1, 19, 5, 21, 12, 1, 14, 1, 22, 25, 1, 12, 9, 1, 2, 18, 1, 3, 1, 4, 1, 2, 18, 1, 3, 1, 12, 25, 1, 11, 2, 1, 4, 5, 2, 1, 19, 5, 4, 19, 5, 5, 4, 5, 12, 5, 7, 1, 14, 3, 5, 1, 18, 21, 2, 1, 8, 1, 4, 14, 25, 1, 19, 1, 3, 1, 2, 12, 9, 13, 15, 8, 1, 20, 6, 1, 9, 14, 20, 15, 12, 1, 4, 1, 13, 1, 7, 5, 4, 16, 1, 9, 14, 5, 6, 12, 21, 11, 25, 5, 18, 1, 19, 7, 21, 12, 1, 7, 4, 9, 15, 18, 6, 15, 18, 4, 19, 6, 9, 5, 12, 4, 2, 1, 7, 7, 1, 7, 5, 15, 1, 20, 19, 5, 1, 18, 19, 2, 15, 2, 1, 7, 1, 18, 3, 8, 9, 11, 5, 5, 14, 19, 11, 1, 25, 7, 18, 5, 7, 7, 8, 21, 13, 2, 15, 12, 4, 20, 2, 1, 14, 4, 1, 9, 4, 5, 19, 5, 12, 2, 1, 16, 1, 13, 1, 16, 20, 1, 5, 19, 3, 21, 12, 1, 16, 9, 21, 19, 8, 1, 8, 2, 18, 1, 14, 19, 1, 14, 1, 1, 18, 3, 19, 13, 5, 1, 14, 25, 1, 3, 3, 9, 14, 20, 9, 12, 5, 12, 1, 9, 18, 13, 1, 5, 20, 20, 1, 5, 20, 15, 14, 1, 4, 1, 13, 3, 25, 19, 20]);
----------

%%  runtime:       1.485 (1485.221 ms)
%%  solvetime:     0.130 (130.801 ms)
%%  solutions:     1
%%  variables:     24369
%%  propagators:   32337
%%  propagations:  340754
%%  nodes:         169
%%  failures:      19
%%  restarts:      0
%%  peak depth:    145

